&CONTROL
calculation = 'nscf',
prefix = '${prefix}',
pseudo_dir = '${potentials_dir}',
outdir = '${output_dir}',
/
&SYSTEM
${cell_config},
${doping},
ecutwfc = 65,
ecutrho = 600,
occupations = 'tetrahedra',
nbnd = 8,
${doping}
/
&ELECTRONS
conv_thr = ${conv_thr},
diago_full_acc = .true.,
/
${atomic_species}
${atomic_positions}
K_POINTS automatic
${num_k_points} ${num_k_points} ${num_k_points} 0 0 0
